p cnf 34 20
17 4 0
11 14 0
-2 -15 0
-9 -13 0
-19 18 0
-3 -16 0
-3 -7 0
3 -5 0
20 -19 0
17 19 0
17 -13 0
16 -12 0
15 -17 0
17 12 0
1 8 0
-1 -6 0
13 -3 0
-7 -10 0
-20 -7 0
-3 17 0
19 -10 0
-18 -13 0
3 -5 0
-12 10 0
-15 5 0
-4 20 0
-5 -2 0
2 -12 0
19 -5 0
-10 -18 0
14 16 0
-12 6 0
-7 -2 0
2 11 0
